clase03/modelo-verano.sol
# Objective value = 140
x1 1
x2 5.3333333333333333e-01
x3 0
u1 1
u2 1
u3 0
